35
1 0 6
2 0 9
2 1 2
3 0 3
3 1 10
3 2 7
4 0 8
4 1 1
4 2 4
4 3 3
5 0 8
5 1 1
5 2 5
5 3 10
5 4 5
6 0 1
6 1 3
6 2 1
6 3 6
6 4 5
6 5 8
7 0 10
7 1 4
7 2 3
7 3 7
7 4 2
7 5 4
7 6 7
8 0 2
8 1 4
8 2 2
8 3 8
8 4 10
8 5 4
8 6 3
8 7 7
9 0 7
9 1 2
9 2 7
9 3 6
9 4 5
9 5 3
9 6 3
9 7 9
9 8 8
10 0 8
10 1 1
10 2 7
10 3 1
10 4 6
10 5 9
10 6 2
10 7 5
10 8 1
10 9 5
11 0 7
11 1 6
11 2 3
11 3 5
11 4 8
11 5 1
11 6 6
11 7 1
11 8 1
11 9 5
11 10 9
12 0 2
12 1 5
12 2 3
12 3 10
12 4 9
12 5 9
12 6 9
12 7 2
12 8 3
12 9 5
12 10 2
12 11 4
13 0 5
13 1 10
13 2 3
13 3 1
13 4 9
13 5 3
13 6 3
13 7 3
13 8 2
13 9 5
13 10 9
13 11 6
13 12 6
14 0 3
14 1 10
14 2 7
14 3 1
14 4 3
14 5 10
14 6 6
14 7 6
14 8 10
14 9 6
14 10 9
14 11 5
14 12 7
14 13 10
15 0 7
15 1 3
15 2 8
15 3 9
15 4 7
15 5 7
15 6 8
15 7 7
15 8 1
15 9 1
15 10 4
15 11 3
15 12 10
15 13 7
15 14 8
16 0 4
16 1 2
16 2 8
16 3 8
16 4 6
16 5 7
16 6 10
16 7 7
16 8 4
16 9 2
16 10 5
16 11 10
16 12 4
16 13 3
16 14 4
16 15 10
17 0 7
17 1 2
17 2 7
17 3 8
17 4 8
17 5 2
17 6 5
17 7 7
17 8 1
17 9 5
17 10 2
17 11 8
17 12 1
17 13 10
17 14 1
17 15 4
17 16 3
18 0 1
18 1 4
18 2 10
18 3 6
18 4 3
18 5 9
18 6 6
18 7 8
18 8 7
18 9 6
18 10 2
18 11 2
18 12 1
18 13 5
18 14 1
18 15 4
18 16 2
18 17 2
19 0 9
19 1 8
19 2 1
19 3 3
19 4 7
19 5 1
19 6 6
19 7 3
19 8 5
19 9 10
19 10 10
19 11 2
19 12 2
19 13 8
19 14 3
19 15 5
19 16 6
19 17 9
19 18 7
20 0 4
20 1 8
20 2 6
20 3 1
20 4 5
20 5 8
20 6 9
20 7 10
20 8 4
20 9 2
20 10 3
20 11 6
20 12 9
20 13 4
20 14 5
20 15 7
20 16 4
20 17 1
20 18 4
20 19 8
21 0 1
21 1 7
21 2 3
21 3 5
21 4 3
21 5 1
21 6 2
21 7 4
21 8 8
21 9 4
21 10 10
21 11 4
21 12 1
21 13 6
21 14 4
21 15 9
21 16 6
21 17 3
21 18 4
21 19 10
21 20 4
22 0 1
22 1 3
22 2 4
22 3 7
22 4 2
22 5 10
22 6 9
22 7 4
22 8 8
22 9 9
22 10 1
22 11 3
22 12 1
22 13 4
22 14 10
22 15 3
22 16 7
22 17 7
22 18 2
22 19 10
22 20 8
22 21 5
23 0 7
23 1 3
23 2 6
23 3 8
23 4 8
23 5 4
23 6 2
23 7 3
23 8 9
23 9 10
23 10 5
23 11 2
23 12 3
23 13 1
23 14 1
23 15 5
23 16 1
23 17 8
23 18 3
23 19 1
23 20 7
23 21 2
23 22 4
24 0 10
24 1 3
24 2 1
24 3 7
24 4 1
24 5 2
24 6 8
24 7 5
24 8 9
24 9 4
24 10 3
24 11 7
24 12 7
24 13 6
24 14 7
24 15 4
24 16 3
24 17 9
24 18 9
24 19 2
24 20 3
24 21 6
24 22 5
24 23 2
25 0 8
25 1 9
25 2 7
25 3 2
25 4 8
25 5 1
25 6 5
25 7 10
25 8 1
25 9 7
25 10 5
25 11 7
25 12 4
25 13 6
25 14 5
25 15 10
25 16 5
25 17 5
25 18 7
25 19 3
25 20 1
25 21 4
25 22 7
25 23 2
25 24 5
26 0 6
26 1 1
26 2 3
26 3 9
26 4 6
26 5 4
26 6 7
26 7 3
26 8 3
26 9 6
26 10 9
26 11 10
26 12 10
26 13 7
26 14 4
26 15 2
26 16 7
26 17 7
26 18 2
26 19 7
26 20 5
26 21 1
26 22 5
26 23 6
26 24 6
26 25 4
27 0 2
27 1 1
27 2 6
27 3 1
27 4 4
27 5 2
27 6 4
27 7 3
27 8 4
27 9 10
27 10 3
27 11 8
27 12 2
27 13 4
27 14 1
27 15 7
27 16 1
27 17 9
27 18 8
27 19 2
27 20 2
27 21 7
27 22 7
27 23 2
27 24 3
27 25 3
27 26 3
28 0 10
28 1 4
28 2 4
28 3 2
28 4 10
28 5 3
28 6 10
28 7 4
28 8 5
28 9 9
28 10 2
28 11 1
28 12 5
28 13 2
28 14 9
28 15 2
28 16 4
28 17 10
28 18 10
28 19 9
28 20 2
28 21 8
28 22 3
28 23 4
28 24 6
28 25 5
28 26 9
28 27 9
29 0 8
29 1 7
29 2 10
29 3 3
29 4 6
29 5 2
29 6 7
29 7 5
29 8 4
29 9 10
29 10 3
29 11 9
29 12 1
29 13 3
29 14 4
29 15 8
29 16 9
29 17 7
29 18 1
29 19 9
29 20 3
29 21 9
29 22 6
29 23 1
29 24 9
29 25 5
29 26 10
29 27 8
29 28 3
30 0 9
30 1 7
30 2 5
30 3 1
30 4 10
30 5 3
30 6 5
30 7 7
30 8 4
30 9 5
30 10 6
30 11 7
30 12 1
30 13 2
30 14 7
30 15 4
30 16 2
30 17 9
30 18 3
30 19 5
30 20 3
30 21 6
30 22 4
30 23 5
30 24 8
30 25 7
30 26 2
30 27 4
30 28 3
30 29 1
31 0 7
31 1 6
31 2 5
31 3 7
31 4 9
31 5 7
31 6 4
31 7 3
31 8 1
31 9 7
31 10 4
31 11 6
31 12 2
31 13 7
31 14 4
31 15 5
31 16 8
31 17 9
31 18 8
31 19 5
31 20 10
31 21 7
31 22 7
31 23 8
31 24 5
31 25 5
31 26 6
31 27 3
31 28 2
31 29 9
31 30 4
32 0 2
32 1 3
32 2 8
32 3 4
32 4 6
32 5 6
32 6 8
32 7 7
32 8 1
32 9 4
32 10 5
32 11 10
32 12 3
32 13 10
32 14 5
32 15 4
32 16 9
32 17 5
32 18 6
32 19 4
32 20 7
32 21 4
32 22 7
32 23 5
32 24 3
32 25 6
32 26 4
32 27 4
32 28 9
32 29 4
32 30 6
32 31 4
33 0 7
33 1 8
33 2 3
33 3 6
33 4 6
33 5 7
33 6 1
33 7 4
33 8 9
33 9 2
33 10 10
33 11 7
33 12 1
33 13 2
33 14 5
33 15 7
33 16 9
33 17 2
33 18 8
33 19 10
33 20 4
33 21 7
33 22 6
33 23 9
33 24 1
33 25 3
33 26 6
33 27 4
33 28 8
33 29 6
33 30 9
33 31 6
33 32 7
34 0 2
34 1 10
34 2 3
34 3 5
34 4 1
34 5 3
34 6 10
34 7 2
34 8 6
34 9 10
34 10 10
34 11 3
34 12 9
34 13 4
34 14 1
34 15 5
34 16 1
34 17 7
34 18 1
34 19 1
34 20 6
34 21 10
34 22 5
34 23 5
34 24 1
34 25 8
34 26 7
34 27 3
34 28 3
34 29 5
34 30 10
34 31 4
34 32 7
34 33 10
